p cnf 409 1520
1 -2 0
-1 2 0
1 3 -4 0
1 -3 4 0
-1 3 4 0
-1 -3 -4 0
3 5 6 0
3 -5 -6 0
-3 5 -6 0
-3 -5 6 0
5 7 8 0
5 -7 -8 0
-5 7 -8 0
-5 -7 8 0
7 9 -10 0
7 -9 10 0
-7 9 10 0
-7 -9 -10 0
9 11 -12 0
9 -11 12 0
-9 11 12 0
-9 -11 -12 0
11 13 -14 0
11 -13 14 0
-11 13 14 0
-11 -13 -14 0
13 15 -16 0
13 -15 16 0
-13 15 16 0
-13 -15 -16 0
15 17 18 0
15 -17 -18 0
-15 17 -18 0
-15 -17 18 0
17 19 20 0
17 -19 -20 0
-17 19 -20 0
-17 -19 20 0
19 21 0
-19 -21 0
2 22 23 0
2 -22 -23 0
-2 22 -23 0
-2 -22 23 0
4 22 24 -25 0
4 22 -24 25 0
4 -22 24 25 0
4 -22 -24 -25 0
-4 22 24 25 0
-4 22 -24 -25 0
-4 -22 24 -25 0
-4 -22 -24 25 0
6 24 26 -27 0
6 24 -26 27 0
6 -24 26 27 0
6 -24 -26 -27 0
-6 24 26 27 0
-6 24 -26 -27 0
-6 -24 26 -27 0
-6 -24 -26 27 0
8 26 28 -29 0
8 26 -28 29 0
8 -26 28 29 0
8 -26 -28 -29 0
-8 26 28 29 0
-8 26 -28 -29 0
-8 -26 28 -29 0
-8 -26 -28 29 0
10 28 30 -31 0
10 28 -30 31 0
10 -28 30 31 0
10 -28 -30 -31 0
-10 28 30 31 0
-10 28 -30 -31 0
-10 -28 30 -31 0
-10 -28 -30 31 0
12 30 32 -33 0
12 30 -32 33 0
12 -30 32 33 0
12 -30 -32 -33 0
-12 30 32 33 0
-12 30 -32 -33 0
-12 -30 32 -33 0
-12 -30 -32 33 0
14 32 34 -35 0
14 32 -34 35 0
14 -32 34 35 0
14 -32 -34 -35 0
-14 32 34 35 0
-14 32 -34 -35 0
-14 -32 34 -35 0
-14 -32 -34 35 0
16 34 36 -37 0
16 34 -36 37 0
16 -34 36 37 0
16 -34 -36 -37 0
-16 34 36 37 0
-16 34 -36 -37 0
-16 -34 36 -37 0
-16 -34 -36 37 0
18 36 38 -39 0
18 36 -38 39 0
18 -36 38 39 0
18 -36 -38 -39 0
-18 36 38 39 0
-18 36 -38 -39 0
-18 -36 38 -39 0
-18 -36 -38 39 0
20 38 40 -41 0
20 38 -40 41 0
20 -38 40 41 0
20 -38 -40 -41 0
-20 38 40 41 0
-20 38 -40 -41 0
-20 -38 40 -41 0
-20 -38 -40 41 0
21 40 42 0
21 -40 -42 0
-21 40 -42 0
-21 -40 42 0
23 43 44 0
23 -43 -44 0
-23 43 -44 0
-23 -43 44 0
25 43 45 -46 0
25 43 -45 46 0
25 -43 45 46 0
25 -43 -45 -46 0
-25 43 45 46 0
-25 43 -45 -46 0
-25 -43 45 -46 0
-25 -43 -45 46 0
27 45 47 48 0
27 45 -47 -48 0
27 -45 47 -48 0
27 -45 -47 48 0
-27 45 47 -48 0
-27 45 -47 48 0
-27 -45 47 48 0
-27 -45 -47 -48 0
29 47 49 50 0
29 47 -49 -50 0
29 -47 49 -50 0
29 -47 -49 50 0
-29 47 49 -50 0
-29 47 -49 50 0
-29 -47 49 50 0
-29 -47 -49 -50 0
31 49 51 52 0
31 49 -51 -52 0
31 -49 51 -52 0
31 -49 -51 52 0
-31 49 51 -52 0
-31 49 -51 52 0
-31 -49 51 52 0
-31 -49 -51 -52 0
33 51 53 54 0
33 51 -53 -54 0
33 -51 53 -54 0
33 -51 -53 54 0
-33 51 53 -54 0
-33 51 -53 54 0
-33 -51 53 54 0
-33 -51 -53 -54 0
35 53 55 56 0
35 53 -55 -56 0
35 -53 55 -56 0
35 -53 -55 56 0
-35 53 55 -56 0
-35 53 -55 56 0
-35 -53 55 56 0
-35 -53 -55 -56 0
37 55 57 -58 0
37 55 -57 58 0
37 -55 57 58 0
37 -55 -57 -58 0
-37 55 57 58 0
-37 55 -57 -58 0
-37 -55 57 -58 0
-37 -55 -57 58 0
39 57 59 -60 0
39 57 -59 60 0
39 -57 59 60 0
39 -57 -59 -60 0
-39 57 59 60 0
-39 57 -59 -60 0
-39 -57 59 -60 0
-39 -57 -59 60 0
41 59 61 -62 0
41 59 -61 62 0
41 -59 61 62 0
41 -59 -61 -62 0
-41 59 61 62 0
-41 59 -61 -62 0
-41 -59 61 -62 0
-41 -59 -61 62 0
42 61 -63 0
42 -61 63 0
-42 61 63 0
-42 -61 -63 0
44 64 65 0
44 -64 -65 0
-44 64 -65 0
-44 -64 65 0
46 64 66 -67 0
46 64 -66 67 0
46 -64 66 67 0
46 -64 -66 -67 0
-46 64 66 67 0
-46 64 -66 -67 0
-46 -64 66 -67 0
-46 -64 -66 67 0
48 66 68 69 0
48 66 -68 -69 0
48 -66 68 -69 0
48 -66 -68 69 0
-48 66 68 -69 0
-48 66 -68 69 0
-48 -66 68 69 0
-48 -66 -68 -69 0
50 68 70 71 0
50 68 -70 -71 0
50 -68 70 -71 0
50 -68 -70 71 0
-50 68 70 -71 0
-50 68 -70 71 0
-50 -68 70 71 0
-50 -68 -70 -71 0
52 70 72 -73 0
52 70 -72 73 0
52 -70 72 73 0
52 -70 -72 -73 0
-52 70 72 73 0
-52 70 -72 -73 0
-52 -70 72 -73 0
-52 -70 -72 73 0
54 72 74 -75 0
54 72 -74 75 0
54 -72 74 75 0
54 -72 -74 -75 0
-54 72 74 75 0
-54 72 -74 -75 0
-54 -72 74 -75 0
-54 -72 -74 75 0
56 74 76 -77 0
56 74 -76 77 0
56 -74 76 77 0
56 -74 -76 -77 0
-56 74 76 77 0
-56 74 -76 -77 0
-56 -74 76 -77 0
-56 -74 -76 77 0
58 76 78 -79 0
58 76 -78 79 0
58 -76 78 79 0
58 -76 -78 -79 0
-58 76 78 79 0
-58 76 -78 -79 0
-58 -76 78 -79 0
-58 -76 -78 79 0
60 78 80 -81 0
60 78 -80 81 0
60 -78 80 81 0
60 -78 -80 -81 0
-60 78 80 81 0
-60 78 -80 -81 0
-60 -78 80 -81 0
-60 -78 -80 81 0
62 80 82 83 0
62 80 -82 -83 0
62 -80 82 -83 0
62 -80 -82 83 0
-62 80 82 -83 0
-62 80 -82 83 0
-62 -80 82 83 0
-62 -80 -82 -83 0
63 82 -84 0
63 -82 84 0
-63 82 84 0
-63 -82 -84 0
65 85 -86 0
65 -85 86 0
-65 85 86 0
-65 -85 -86 0
67 85 87 -88 0
67 85 -87 88 0
67 -85 87 88 0
67 -85 -87 -88 0
-67 85 87 88 0
-67 85 -87 -88 0
-67 -85 87 -88 0
-67 -85 -87 88 0
69 87 89 -90 0
69 87 -89 90 0
69 -87 89 90 0
69 -87 -89 -90 0
-69 87 89 90 0
-69 87 -89 -90 0
-69 -87 89 -90 0
-69 -87 -89 90 0
71 89 91 -92 0
71 89 -91 92 0
71 -89 91 92 0
71 -89 -91 -92 0
-71 89 91 92 0
-71 89 -91 -92 0
-71 -89 91 -92 0
-71 -89 -91 92 0
73 91 93 94 0
73 91 -93 -94 0
73 -91 93 -94 0
73 -91 -93 94 0
-73 91 93 -94 0
-73 91 -93 94 0
-73 -91 93 94 0
-73 -91 -93 -94 0
75 93 95 96 0
75 93 -95 -96 0
75 -93 95 -96 0
75 -93 -95 96 0
-75 93 95 -96 0
-75 93 -95 96 0
-75 -93 95 96 0
-75 -93 -95 -96 0
77 95 97 98 0
77 95 -97 -98 0
77 -95 97 -98 0
77 -95 -97 98 0
-77 95 97 -98 0
-77 95 -97 98 0
-77 -95 97 98 0
-77 -95 -97 -98 0
79 97 99 -100 0
79 97 -99 100 0
79 -97 99 100 0
79 -97 -99 -100 0
-79 97 99 100 0
-79 97 -99 -100 0
-79 -97 99 -100 0
-79 -97 -99 100 0
81 99 101 102 0
81 99 -101 -102 0
81 -99 101 -102 0
81 -99 -101 102 0
-81 99 101 -102 0
-81 99 -101 102 0
-81 -99 101 102 0
-81 -99 -101 -102 0
83 101 103 104 0
83 101 -103 -104 0
83 -101 103 -104 0
83 -101 -103 104 0
-83 101 103 -104 0
-83 101 -103 104 0
-83 -101 103 104 0
-83 -101 -103 -104 0
84 103 -105 0
84 -103 105 0
-84 103 105 0
-84 -103 -105 0
86 106 107 0
86 -106 -107 0
-86 106 -107 0
-86 -106 107 0
88 106 108 -109 0
88 106 -108 109 0
88 -106 108 109 0
88 -106 -108 -109 0
-88 106 108 109 0
-88 106 -108 -109 0
-88 -106 108 -109 0
-88 -106 -108 109 0
90 108 110 111 0
90 108 -110 -111 0
90 -108 110 -111 0
90 -108 -110 111 0
-90 108 110 -111 0
-90 108 -110 111 0
-90 -108 110 111 0
-90 -108 -110 -111 0
92 110 112 -113 0
92 110 -112 113 0
92 -110 112 113 0
92 -110 -112 -113 0
-92 110 112 113 0
-92 110 -112 -113 0
-92 -110 112 -113 0
-92 -110 -112 113 0
94 112 114 -115 0
94 112 -114 115 0
94 -112 114 115 0
94 -112 -114 -115 0
-94 112 114 115 0
-94 112 -114 -115 0
-94 -112 114 -115 0
-94 -112 -114 115 0
96 114 116 117 0
96 114 -116 -117 0
96 -114 116 -117 0
96 -114 -116 117 0
-96 114 116 -117 0
-96 114 -116 117 0
-96 -114 116 117 0
-96 -114 -116 -117 0
98 116 118 -119 0
98 116 -118 119 0
98 -116 118 119 0
98 -116 -118 -119 0
-98 116 118 119 0
-98 116 -118 -119 0
-98 -116 118 -119 0
-98 -116 -118 119 0
100 118 120 121 0
100 118 -120 -121 0
100 -118 120 -121 0
100 -118 -120 121 0
-100 118 120 -121 0
-100 118 -120 121 0
-100 -118 120 121 0
-100 -118 -120 -121 0
102 120 122 -123 0
102 120 -122 123 0
102 -120 122 123 0
102 -120 -122 -123 0
-102 120 122 123 0
-102 120 -122 -123 0
-102 -120 122 -123 0
-102 -120 -122 123 0
104 122 124 125 0
104 122 -124 -125 0
104 -122 124 -125 0
104 -122 -124 125 0
-104 122 124 -125 0
-104 122 -124 125 0
-104 -122 124 125 0
-104 -122 -124 -125 0
105 124 -126 0
105 -124 126 0
-105 124 126 0
-105 -124 -126 0
107 127 -128 0
107 -127 128 0
-107 127 128 0
-107 -127 -128 0
109 127 129 -130 0
109 127 -129 130 0
109 -127 129 130 0
109 -127 -129 -130 0
-109 127 129 130 0
-109 127 -129 -130 0
-109 -127 129 -130 0
-109 -127 -129 130 0
111 129 131 -132 0
111 129 -131 132 0
111 -129 131 132 0
111 -129 -131 -132 0
-111 129 131 132 0
-111 129 -131 -132 0
-111 -129 131 -132 0
-111 -129 -131 132 0
113 131 133 -134 0
113 131 -133 134 0
113 -131 133 134 0
113 -131 -133 -134 0
-113 131 133 134 0
-113 131 -133 -134 0
-113 -131 133 -134 0
-113 -131 -133 134 0
115 133 135 136 0
115 133 -135 -136 0
115 -133 135 -136 0
115 -133 -135 136 0
-115 133 135 -136 0
-115 133 -135 136 0
-115 -133 135 136 0
-115 -133 -135 -136 0
117 135 137 138 0
117 135 -137 -138 0
117 -135 137 -138 0
117 -135 -137 138 0
-117 135 137 -138 0
-117 135 -137 138 0
-117 -135 137 138 0
-117 -135 -137 -138 0
119 137 139 140 0
119 137 -139 -140 0
119 -137 139 -140 0
119 -137 -139 140 0
-119 137 139 -140 0
-119 137 -139 140 0
-119 -137 139 140 0
-119 -137 -139 -140 0
121 139 141 142 0
121 139 -141 -142 0
121 -139 141 -142 0
121 -139 -141 142 0
-121 139 141 -142 0
-121 139 -141 142 0
-121 -139 141 142 0
-121 -139 -141 -142 0
123 141 143 -144 0
123 141 -143 144 0
123 -141 143 144 0
123 -141 -143 -144 0
-123 141 143 144 0
-123 141 -143 -144 0
-123 -141 143 -144 0
-123 -141 -143 144 0
125 143 145 146 0
125 143 -145 -146 0
125 -143 145 -146 0
125 -143 -145 146 0
-125 143 145 -146 0
-125 143 -145 146 0
-125 -143 145 146 0
-125 -143 -145 -146 0
126 145 147 0
126 -145 -147 0
-126 145 -147 0
-126 -145 147 0
128 148 149 0
128 -148 -149 0
-128 148 -149 0
-128 -148 149 0
130 148 150 -151 0
130 148 -150 151 0
130 -148 150 151 0
130 -148 -150 -151 0
-130 148 150 151 0
-130 148 -150 -151 0
-130 -148 150 -151 0
-130 -148 -150 151 0
132 150 152 153 0
132 150 -152 -153 0
132 -150 152 -153 0
132 -150 -152 153 0
-132 150 152 -153 0
-132 150 -152 153 0
-132 -150 152 153 0
-132 -150 -152 -153 0
134 152 154 -155 0
134 152 -154 155 0
134 -152 154 155 0
134 -152 -154 -155 0
-134 152 154 155 0
-134 152 -154 -155 0
-134 -152 154 -155 0
-134 -152 -154 155 0
136 154 156 -157 0
136 154 -156 157 0
136 -154 156 157 0
136 -154 -156 -157 0
-136 154 156 157 0
-136 154 -156 -157 0
-136 -154 156 -157 0
-136 -154 -156 157 0
138 156 158 159 0
138 156 -158 -159 0
138 -156 158 -159 0
138 -156 -158 159 0
-138 156 158 -159 0
-138 156 -158 159 0
-138 -156 158 159 0
-138 -156 -158 -159 0
140 158 160 161 0
140 158 -160 -161 0
140 -158 160 -161 0
140 -158 -160 161 0
-140 158 160 -161 0
-140 158 -160 161 0
-140 -158 160 161 0
-140 -158 -160 -161 0
142 160 162 163 0
142 160 -162 -163 0
142 -160 162 -163 0
142 -160 -162 163 0
-142 160 162 -163 0
-142 160 -162 163 0
-142 -160 162 163 0
-142 -160 -162 -163 0
144 162 164 165 0
144 162 -164 -165 0
144 -162 164 -165 0
144 -162 -164 165 0
-144 162 164 -165 0
-144 162 -164 165 0
-144 -162 164 165 0
-144 -162 -164 -165 0
146 164 166 -167 0
146 164 -166 167 0
146 -164 166 167 0
146 -164 -166 -167 0
-146 164 166 167 0
-146 164 -166 -167 0
-146 -164 166 -167 0
-146 -164 -166 167 0
147 166 -168 0
147 -166 168 0
-147 166 168 0
-147 -166 -168 0
149 169 170 0
149 -169 -170 0
-149 169 -170 0
-149 -169 170 0
151 169 171 172 0
151 169 -171 -172 0
151 -169 171 -172 0
151 -169 -171 172 0
-151 169 171 -172 0
-151 169 -171 172 0
-151 -169 171 172 0
-151 -169 -171 -172 0
153 171 173 -174 0
153 171 -173 174 0
153 -171 173 174 0
153 -171 -173 -174 0
-153 171 173 174 0
-153 171 -173 -174 0
-153 -171 173 -174 0
-153 -171 -173 174 0
155 173 175 -176 0
155 173 -175 176 0
155 -173 175 176 0
155 -173 -175 -176 0
-155 173 175 176 0
-155 173 -175 -176 0
-155 -173 175 -176 0
-155 -173 -175 176 0
157 175 177 -178 0
157 175 -177 178 0
157 -175 177 178 0
157 -175 -177 -178 0
-157 175 177 178 0
-157 175 -177 -178 0
-157 -175 177 -178 0
-157 -175 -177 178 0
159 177 179 180 0
159 177 -179 -180 0
159 -177 179 -180 0
159 -177 -179 180 0
-159 177 179 -180 0
-159 177 -179 180 0
-159 -177 179 180 0
-159 -177 -179 -180 0
161 179 181 -182 0
161 179 -181 182 0
161 -179 181 182 0
161 -179 -181 -182 0
-161 179 181 182 0
-161 179 -181 -182 0
-161 -179 181 -182 0
-161 -179 -181 182 0
163 181 183 184 0
163 181 -183 -184 0
163 -181 183 -184 0
163 -181 -183 184 0
-163 181 183 -184 0
-163 181 -183 184 0
-163 -181 183 184 0
-163 -181 -183 -184 0
165 183 185 -186 0
165 183 -185 186 0
165 -183 185 186 0
165 -183 -185 -186 0
-165 183 185 186 0
-165 183 -185 -186 0
-165 -183 185 -186 0
-165 -183 -185 186 0
167 185 187 -188 0
167 185 -187 188 0
167 -185 187 188 0
167 -185 -187 -188 0
-167 185 187 188 0
-167 185 -187 -188 0
-167 -185 187 -188 0
-167 -185 -187 188 0
168 187 -189 0
168 -187 189 0
-168 187 189 0
-168 -187 -189 0
170 190 -191 0
170 -190 191 0
-170 190 191 0
-170 -190 -191 0
172 190 192 -193 0
172 190 -192 193 0
172 -190 192 193 0
172 -190 -192 -193 0
-172 190 192 193 0
-172 190 -192 -193 0
-172 -190 192 -193 0
-172 -190 -192 193 0
174 192 194 -195 0
174 192 -194 195 0
174 -192 194 195 0
174 -192 -194 -195 0
-174 192 194 195 0
-174 192 -194 -195 0
-174 -192 194 -195 0
-174 -192 -194 195 0
176 194 196 197 0
176 194 -196 -197 0
176 -194 196 -197 0
176 -194 -196 197 0
-176 194 196 -197 0
-176 194 -196 197 0
-176 -194 196 197 0
-176 -194 -196 -197 0
178 196 198 -199 0
178 196 -198 199 0
178 -196 198 199 0
178 -196 -198 -199 0
-178 196 198 199 0
-178 196 -198 -199 0
-178 -196 198 -199 0
-178 -196 -198 199 0
180 198 200 201 0
180 198 -200 -201 0
180 -198 200 -201 0
180 -198 -200 201 0
-180 198 200 -201 0
-180 198 -200 201 0
-180 -198 200 201 0
-180 -198 -200 -201 0
182 200 202 -203 0
182 200 -202 203 0
182 -200 202 203 0
182 -200 -202 -203 0
-182 200 202 203 0
-182 200 -202 -203 0
-182 -200 202 -203 0
-182 -200 -202 203 0
184 202 204 205 0
184 202 -204 -205 0
184 -202 204 -205 0
184 -202 -204 205 0
-184 202 204 -205 0
-184 202 -204 205 0
-184 -202 204 205 0
-184 -202 -204 -205 0
186 204 206 -207 0
186 204 -206 207 0
186 -204 206 207 0
186 -204 -206 -207 0
-186 204 206 207 0
-186 204 -206 -207 0
-186 -204 206 -207 0
-186 -204 -206 207 0
188 206 208 -209 0
188 206 -208 209 0
188 -206 208 209 0
188 -206 -208 -209 0
-188 206 208 209 0
-188 206 -208 -209 0
-188 -206 208 -209 0
-188 -206 -208 209 0
189 208 -210 0
189 -208 210 0
-189 208 210 0
-189 -208 -210 0
191 211 212 0
191 -211 -212 0
-191 211 -212 0
-191 -211 212 0
193 211 213 214 0
193 211 -213 -214 0
193 -211 213 -214 0
193 -211 -213 214 0
-193 211 213 -214 0
-193 211 -213 214 0
-193 -211 213 214 0
-193 -211 -213 -214 0
195 213 215 -216 0
195 213 -215 216 0
195 -213 215 216 0
195 -213 -215 -216 0
-195 213 215 216 0
-195 213 -215 -216 0
-195 -213 215 -216 0
-195 -213 -215 216 0
197 215 217 218 0
197 215 -217 -218 0
197 -215 217 -218 0
197 -215 -217 218 0
-197 215 217 -218 0
-197 215 -217 218 0
-197 -215 217 218 0
-197 -215 -217 -218 0
199 217 219 220 0
199 217 -219 -220 0
199 -217 219 -220 0
199 -217 -219 220 0
-199 217 219 -220 0
-199 217 -219 220 0
-199 -217 219 220 0
-199 -217 -219 -220 0
201 219 221 222 0
201 219 -221 -222 0
201 -219 221 -222 0
201 -219 -221 222 0
-201 219 221 -222 0
-201 219 -221 222 0
-201 -219 221 222 0
-201 -219 -221 -222 0
203 221 223 224 0
203 221 -223 -224 0
203 -221 223 -224 0
203 -221 -223 224 0
-203 221 223 -224 0
-203 221 -223 224 0
-203 -221 223 224 0
-203 -221 -223 -224 0
205 223 225 226 0
205 223 -225 -226 0
205 -223 225 -226 0
205 -223 -225 226 0
-205 223 225 -226 0
-205 223 -225 226 0
-205 -223 225 226 0
-205 -223 -225 -226 0
207 225 227 228 0
207 225 -227 -228 0
207 -225 227 -228 0
207 -225 -227 228 0
-207 225 227 -228 0
-207 225 -227 228 0
-207 -225 227 228 0
-207 -225 -227 -228 0
209 227 229 -230 0
209 227 -229 230 0
209 -227 229 230 0
209 -227 -229 -230 0
-209 227 229 230 0
-209 227 -229 -230 0
-209 -227 229 -230 0
-209 -227 -229 230 0
210 229 -231 0
210 -229 231 0
-210 229 231 0
-210 -229 -231 0
212 232 -233 0
212 -232 233 0
-212 232 233 0
-212 -232 -233 0
214 232 234 235 0
214 232 -234 -235 0
214 -232 234 -235 0
214 -232 -234 235 0
-214 232 234 -235 0
-214 232 -234 235 0
-214 -232 234 235 0
-214 -232 -234 -235 0
216 234 236 -237 0
216 234 -236 237 0
216 -234 236 237 0
216 -234 -236 -237 0
-216 234 236 237 0
-216 234 -236 -237 0
-216 -234 236 -237 0
-216 -234 -236 237 0
218 236 238 239 0
218 236 -238 -239 0
218 -236 238 -239 0
218 -236 -238 239 0
-218 236 238 -239 0
-218 236 -238 239 0
-218 -236 238 239 0
-218 -236 -238 -239 0
220 238 240 241 0
220 238 -240 -241 0
220 -238 240 -241 0
220 -238 -240 241 0
-220 238 240 -241 0
-220 238 -240 241 0
-220 -238 240 241 0
-220 -238 -240 -241 0
222 240 242 -243 0
222 240 -242 243 0
222 -240 242 243 0
222 -240 -242 -243 0
-222 240 242 243 0
-222 240 -242 -243 0
-222 -240 242 -243 0
-222 -240 -242 243 0
224 242 244 -245 0
224 242 -244 245 0
224 -242 244 245 0
224 -242 -244 -245 0
-224 242 244 245 0
-224 242 -244 -245 0
-224 -242 244 -245 0
-224 -242 -244 245 0
226 244 246 247 0
226 244 -246 -247 0
226 -244 246 -247 0
226 -244 -246 247 0
-226 244 246 -247 0
-226 244 -246 247 0
-226 -244 246 247 0
-226 -244 -246 -247 0
228 246 248 249 0
228 246 -248 -249 0
228 -246 248 -249 0
228 -246 -248 249 0
-228 246 248 -249 0
-228 246 -248 249 0
-228 -246 248 249 0
-228 -246 -248 -249 0
230 248 250 -251 0
230 248 -250 251 0
230 -248 250 251 0
230 -248 -250 -251 0
-230 248 250 251 0
-230 248 -250 -251 0
-230 -248 250 -251 0
-230 -248 -250 251 0
231 250 -252 0
231 -250 252 0
-231 250 252 0
-231 -250 -252 0
233 253 -254 0
233 -253 254 0
-233 253 254 0
-233 -253 -254 0
235 253 255 -256 0
235 253 -255 256 0
235 -253 255 256 0
235 -253 -255 -256 0
-235 253 255 256 0
-235 253 -255 -256 0
-235 -253 255 -256 0
-235 -253 -255 256 0
237 255 257 258 0
237 255 -257 -258 0
237 -255 257 -258 0
237 -255 -257 258 0
-237 255 257 -258 0
-237 255 -257 258 0
-237 -255 257 258 0
-237 -255 -257 -258 0
239 257 259 -260 0
239 257 -259 260 0
239 -257 259 260 0
239 -257 -259 -260 0
-239 257 259 260 0
-239 257 -259 -260 0
-239 -257 259 -260 0
-239 -257 -259 260 0
241 259 261 262 0
241 259 -261 -262 0
241 -259 261 -262 0
241 -259 -261 262 0
-241 259 261 -262 0
-241 259 -261 262 0
-241 -259 261 262 0
-241 -259 -261 -262 0
243 261 263 264 0
243 261 -263 -264 0
243 -261 263 -264 0
243 -261 -263 264 0
-243 261 263 -264 0
-243 261 -263 264 0
-243 -261 263 264 0
-243 -261 -263 -264 0
245 263 265 -266 0
245 263 -265 266 0
245 -263 265 266 0
245 -263 -265 -266 0
-245 263 265 266 0
-245 263 -265 -266 0
-245 -263 265 -266 0
-245 -263 -265 266 0
247 265 267 268 0
247 265 -267 -268 0
247 -265 267 -268 0
247 -265 -267 268 0
-247 265 267 -268 0
-247 265 -267 268 0
-247 -265 267 268 0
-247 -265 -267 -268 0
249 267 269 -270 0
249 267 -269 270 0
249 -267 269 270 0
249 -267 -269 -270 0
-249 267 269 270 0
-249 267 -269 -270 0
-249 -267 269 -270 0
-249 -267 -269 270 0
251 269 271 272 0
251 269 -271 -272 0
251 -269 271 -272 0
251 -269 -271 272 0
-251 269 271 -272 0
-251 269 -271 272 0
-251 -269 271 272 0
-251 -269 -271 -272 0
252 271 273 0
252 -271 -273 0
-252 271 -273 0
-252 -271 273 0
254 274 -275 0
254 -274 275 0
-254 274 275 0
-254 -274 -275 0
256 274 276 -277 0
256 274 -276 277 0
256 -274 276 277 0
256 -274 -276 -277 0
-256 274 276 277 0
-256 274 -276 -277 0
-256 -274 276 -277 0
-256 -274 -276 277 0
258 276 278 -279 0
258 276 -278 279 0
258 -276 278 279 0
258 -276 -278 -279 0
-258 276 278 279 0
-258 276 -278 -279 0
-258 -276 278 -279 0
-258 -276 -278 279 0
260 278 280 -281 0
260 278 -280 281 0
260 -278 280 281 0
260 -278 -280 -281 0
-260 278 280 281 0
-260 278 -280 -281 0
-260 -278 280 -281 0
-260 -278 -280 281 0
262 280 282 283 0
262 280 -282 -283 0
262 -280 282 -283 0
262 -280 -282 283 0
-262 280 282 -283 0
-262 280 -282 283 0
-262 -280 282 283 0
-262 -280 -282 -283 0
264 282 284 -285 0
264 282 -284 285 0
264 -282 284 285 0
264 -282 -284 -285 0
-264 282 284 285 0
-264 282 -284 -285 0
-264 -282 284 -285 0
-264 -282 -284 285 0
266 284 286 287 0
266 284 -286 -287 0
266 -284 286 -287 0
266 -284 -286 287 0
-266 284 286 -287 0
-266 284 -286 287 0
-266 -284 286 287 0
-266 -284 -286 -287 0
268 286 288 289 0
268 286 -288 -289 0
268 -286 288 -289 0
268 -286 -288 289 0
-268 286 288 -289 0
-268 286 -288 289 0
-268 -286 288 289 0
-268 -286 -288 -289 0
270 288 290 -291 0
270 288 -290 291 0
270 -288 290 291 0
270 -288 -290 -291 0
-270 288 290 291 0
-270 288 -290 -291 0
-270 -288 290 -291 0
-270 -288 -290 291 0
272 290 292 293 0
272 290 -292 -293 0
272 -290 292 -293 0
272 -290 -292 293 0
-272 290 292 -293 0
-272 290 -292 293 0
-272 -290 292 293 0
-272 -290 -292 -293 0
273 292 294 0
273 -292 -294 0
-273 292 -294 0
-273 -292 294 0
275 295 -296 0
275 -295 296 0
-275 295 296 0
-275 -295 -296 0
277 295 297 -298 0
277 295 -297 298 0
277 -295 297 298 0
277 -295 -297 -298 0
-277 295 297 298 0
-277 295 -297 -298 0
-277 -295 297 -298 0
-277 -295 -297 298 0
279 297 299 300 0
279 297 -299 -300 0
279 -297 299 -300 0
279 -297 -299 300 0
-279 297 299 -300 0
-279 297 -299 300 0
-279 -297 299 300 0
-279 -297 -299 -300 0
281 299 301 -302 0
281 299 -301 302 0
281 -299 301 302 0
281 -299 -301 -302 0
-281 299 301 302 0
-281 299 -301 -302 0
-281 -299 301 -302 0
-281 -299 -301 302 0
283 301 303 304 0
283 301 -303 -304 0
283 -301 303 -304 0
283 -301 -303 304 0
-283 301 303 -304 0
-283 301 -303 304 0
-283 -301 303 304 0
-283 -301 -303 -304 0
285 303 305 -306 0
285 303 -305 306 0
285 -303 305 306 0
285 -303 -305 -306 0
-285 303 305 306 0
-285 303 -305 -306 0
-285 -303 305 -306 0
-285 -303 -305 306 0
287 305 307 308 0
287 305 -307 -308 0
287 -305 307 -308 0
287 -305 -307 308 0
-287 305 307 -308 0
-287 305 -307 308 0
-287 -305 307 308 0
-287 -305 -307 -308 0
289 307 309 -310 0
289 307 -309 310 0
289 -307 309 310 0
289 -307 -309 -310 0
-289 307 309 310 0
-289 307 -309 -310 0
-289 -307 309 -310 0
-289 -307 -309 310 0
291 309 311 -312 0
291 309 -311 312 0
291 -309 311 312 0
291 -309 -311 -312 0
-291 309 311 312 0
-291 309 -311 -312 0
-291 -309 311 -312 0
-291 -309 -311 312 0
293 311 313 -314 0
293 311 -313 314 0
293 -311 313 314 0
293 -311 -313 -314 0
-293 311 313 314 0
-293 311 -313 -314 0
-293 -311 313 -314 0
-293 -311 -313 314 0
294 313 -315 0
294 -313 315 0
-294 313 315 0
-294 -313 -315 0
296 316 -317 0
296 -316 317 0
-296 316 317 0
-296 -316 -317 0
298 316 318 319 0
298 316 -318 -319 0
298 -316 318 -319 0
298 -316 -318 319 0
-298 316 318 -319 0
-298 316 -318 319 0
-298 -316 318 319 0
-298 -316 -318 -319 0
300 318 320 321 0
300 318 -320 -321 0
300 -318 320 -321 0
300 -318 -320 321 0
-300 318 320 -321 0
-300 318 -320 321 0
-300 -318 320 321 0
-300 -318 -320 -321 0
302 320 322 -323 0
302 320 -322 323 0
302 -320 322 323 0
302 -320 -322 -323 0
-302 320 322 323 0
-302 320 -322 -323 0
-302 -320 322 -323 0
-302 -320 -322 323 0
304 322 324 -325 0
304 322 -324 325 0
304 -322 324 325 0
304 -322 -324 -325 0
-304 322 324 325 0
-304 322 -324 -325 0
-304 -322 324 -325 0
-304 -322 -324 325 0
306 324 326 327 0
306 324 -326 -327 0
306 -324 326 -327 0
306 -324 -326 327 0
-306 324 326 -327 0
-306 324 -326 327 0
-306 -324 326 327 0
-306 -324 -326 -327 0
308 326 328 329 0
308 326 -328 -329 0
308 -326 328 -329 0
308 -326 -328 329 0
-308 326 328 -329 0
-308 326 -328 329 0
-308 -326 328 329 0
-308 -326 -328 -329 0
310 328 330 331 0
310 328 -330 -331 0
310 -328 330 -331 0
310 -328 -330 331 0
-310 328 330 -331 0
-310 328 -330 331 0
-310 -328 330 331 0
-310 -328 -330 -331 0
312 330 332 -333 0
312 330 -332 333 0
312 -330 332 333 0
312 -330 -332 -333 0
-312 330 332 333 0
-312 330 -332 -333 0
-312 -330 332 -333 0
-312 -330 -332 333 0
314 332 334 335 0
314 332 -334 -335 0
314 -332 334 -335 0
314 -332 -334 335 0
-314 332 334 -335 0
-314 332 -334 335 0
-314 -332 334 335 0
-314 -332 -334 -335 0
315 334 -336 0
315 -334 336 0
-315 334 336 0
-315 -334 -336 0
317 337 -338 0
317 -337 338 0
-317 337 338 0
-317 -337 -338 0
319 337 339 340 0
319 337 -339 -340 0
319 -337 339 -340 0
319 -337 -339 340 0
-319 337 339 -340 0
-319 337 -339 340 0
-319 -337 339 340 0
-319 -337 -339 -340 0
321 339 341 342 0
321 339 -341 -342 0
321 -339 341 -342 0
321 -339 -341 342 0
-321 339 341 -342 0
-321 339 -341 342 0
-321 -339 341 342 0
-321 -339 -341 -342 0
323 341 343 -344 0
323 341 -343 344 0
323 -341 343 344 0
323 -341 -343 -344 0
-323 341 343 344 0
-323 341 -343 -344 0
-323 -341 343 -344 0
-323 -341 -343 344 0
325 343 345 346 0
325 343 -345 -346 0
325 -343 345 -346 0
325 -343 -345 346 0
-325 343 345 -346 0
-325 343 -345 346 0
-325 -343 345 346 0
-325 -343 -345 -346 0
327 345 347 348 0
327 345 -347 -348 0
327 -345 347 -348 0
327 -345 -347 348 0
-327 345 347 -348 0
-327 345 -347 348 0
-327 -345 347 348 0
-327 -345 -347 -348 0
329 347 349 -350 0
329 347 -349 350 0
329 -347 349 350 0
329 -347 -349 -350 0
-329 347 349 350 0
-329 347 -349 -350 0
-329 -347 349 -350 0
-329 -347 -349 350 0
331 349 351 352 0
331 349 -351 -352 0
331 -349 351 -352 0
331 -349 -351 352 0
-331 349 351 -352 0
-331 349 -351 352 0
-331 -349 351 352 0
-331 -349 -351 -352 0
333 351 353 -354 0
333 351 -353 354 0
333 -351 353 354 0
333 -351 -353 -354 0
-333 351 353 354 0
-333 351 -353 -354 0
-333 -351 353 -354 0
-333 -351 -353 354 0
335 353 355 -356 0
335 353 -355 356 0
335 -353 355 356 0
335 -353 -355 -356 0
-335 353 355 356 0
-335 353 -355 -356 0
-335 -353 355 -356 0
-335 -353 -355 356 0
336 355 -357 0
336 -355 357 0
-336 355 357 0
-336 -355 -357 0
338 358 359 0
338 -358 -359 0
-338 358 -359 0
-338 -358 359 0
340 358 360 -361 0
340 358 -360 361 0
340 -358 360 361 0
340 -358 -360 -361 0
-340 358 360 361 0
-340 358 -360 -361 0
-340 -358 360 -361 0
-340 -358 -360 361 0
342 360 362 -363 0
342 360 -362 363 0
342 -360 362 363 0
342 -360 -362 -363 0
-342 360 362 363 0
-342 360 -362 -363 0
-342 -360 362 -363 0
-342 -360 -362 363 0
344 362 364 -365 0
344 362 -364 365 0
344 -362 364 365 0
344 -362 -364 -365 0
-344 362 364 365 0
-344 362 -364 -365 0
-344 -362 364 -365 0
-344 -362 -364 365 0
346 364 366 367 0
346 364 -366 -367 0
346 -364 366 -367 0
346 -364 -366 367 0
-346 364 366 -367 0
-346 364 -366 367 0
-346 -364 366 367 0
-346 -364 -366 -367 0
348 366 368 -369 0
348 366 -368 369 0
348 -366 368 369 0
348 -366 -368 -369 0
-348 366 368 369 0
-348 366 -368 -369 0
-348 -366 368 -369 0
-348 -366 -368 369 0
350 368 370 371 0
350 368 -370 -371 0
350 -368 370 -371 0
350 -368 -370 371 0
-350 368 370 -371 0
-350 368 -370 371 0
-350 -368 370 371 0
-350 -368 -370 -371 0
352 370 372 373 0
352 370 -372 -373 0
352 -370 372 -373 0
352 -370 -372 373 0
-352 370 372 -373 0
-352 370 -372 373 0
-352 -370 372 373 0
-352 -370 -372 -373 0
354 372 374 -375 0
354 372 -374 375 0
354 -372 374 375 0
354 -372 -374 -375 0
-354 372 374 375 0
-354 372 -374 -375 0
-354 -372 374 -375 0
-354 -372 -374 375 0
356 374 376 377 0
356 374 -376 -377 0
356 -374 376 -377 0
356 -374 -376 377 0
-356 374 376 -377 0
-356 374 -376 377 0
-356 -374 376 377 0
-356 -374 -376 -377 0
357 376 378 0
357 -376 -378 0
-357 376 -378 0
-357 -376 378 0
359 379 -380 0
359 -379 380 0
-359 379 380 0
-359 -379 -380 0
361 379 381 -382 0
361 379 -381 382 0
361 -379 381 382 0
361 -379 -381 -382 0
-361 379 381 382 0
-361 379 -381 -382 0
-361 -379 381 -382 0
-361 -379 -381 382 0
363 381 383 384 0
363 381 -383 -384 0
363 -381 383 -384 0
363 -381 -383 384 0
-363 381 383 -384 0
-363 381 -383 384 0
-363 -381 383 384 0
-363 -381 -383 -384 0
365 383 385 386 0
365 383 -385 -386 0
365 -383 385 -386 0
365 -383 -385 386 0
-365 383 385 -386 0
-365 383 -385 386 0
-365 -383 385 386 0
-365 -383 -385 -386 0
367 385 387 -388 0
367 385 -387 388 0
367 -385 387 388 0
367 -385 -387 -388 0
-367 385 387 388 0
-367 385 -387 -388 0
-367 -385 387 -388 0
-367 -385 -387 388 0
369 387 389 -390 0
369 387 -389 390 0
369 -387 389 390 0
369 -387 -389 -390 0
-369 387 389 390 0
-369 387 -389 -390 0
-369 -387 389 -390 0
-369 -387 -389 390 0
371 389 391 392 0
371 389 -391 -392 0
371 -389 391 -392 0
371 -389 -391 392 0
-371 389 391 -392 0
-371 389 -391 392 0
-371 -389 391 392 0
-371 -389 -391 -392 0
373 391 393 394 0
373 391 -393 -394 0
373 -391 393 -394 0
373 -391 -393 394 0
-373 391 393 -394 0
-373 391 -393 394 0
-373 -391 393 394 0
-373 -391 -393 -394 0
375 393 395 396 0
375 393 -395 -396 0
375 -393 395 -396 0
375 -393 -395 396 0
-375 393 395 -396 0
-375 393 -395 396 0
-375 -393 395 396 0
-375 -393 -395 -396 0
377 395 397 -398 0
377 395 -397 398 0
377 -395 397 398 0
377 -395 -397 -398 0
-377 395 397 398 0
-377 395 -397 -398 0
-377 -395 397 -398 0
-377 -395 -397 398 0
378 397 -399 0
378 -397 399 0
-378 397 399 0
-378 -397 -399 0
380 400 0
-380 -400 0
382 400 -401 0
382 -400 401 0
-382 400 401 0
-382 -400 -401 0
384 401 402 0
384 -401 -402 0
-384 401 -402 0
-384 -401 402 0
386 402 -403 0
386 -402 403 0
-386 402 403 0
-386 -402 -403 0
388 403 404 0
388 -403 -404 0
-388 403 -404 0
-388 -403 404 0
390 404 405 0
390 -404 -405 0
-390 404 -405 0
-390 -404 405 0
392 405 -406 0
392 -405 406 0
-392 405 406 0
-392 -405 -406 0
394 406 -407 0
394 -406 407 0
-394 406 407 0
-394 -406 -407 0
396 407 408 0
396 -407 -408 0
-396 407 -408 0
-396 -407 408 0
398 408 -409 0
398 -408 409 0
-398 408 409 0
-398 -408 -409 0
399 409 0
-399 -409 0
